(set-logic QF_SLIA)
(set-option :produce-models true)
(declare-const X String)
; User-Agent\x3A.*User-Agent\x3A.*spyblini\x2Einidata\.warezclient\.com
(assert (not (str.in_re X (re.++ (str.to_re "User-Agent:") (re.* re.allchar) (str.to_re "User-Agent:") (re.* re.allchar) (str.to_re "spyblini.inidata.warezclient.com\u{0a}")))))
; /^range\u{7c}\d+\u{7c}\d+\x7C[a-z0-9]+\x2E[a-z]{2,3}\x7C[a-z0-9]+\x7C/
(assert (not (str.in_re X (re.++ (str.to_re "/range|") (re.+ (re.range "0" "9")) (str.to_re "|") (re.+ (re.range "0" "9")) (str.to_re "|") (re.+ (re.union (re.range "a" "z") (re.range "0" "9"))) (str.to_re ".") ((_ re.loop 2 3) (re.range "a" "z")) (str.to_re "|") (re.+ (re.union (re.range "a" "z") (re.range "0" "9"))) (str.to_re "|/\u{0a}")))))
; ^((A[LKZR])|(C[AOT])|(D[EC])|(FL)|(GA)|(HI)|(I[DLNA])|(K[SY])|(LA)|(M[EDAINSOT])|(N[EVHJMYCD])|(O[HKR])|(PA)|(RI)|(S[CD])|(T[NX])|(UT)|(V[TA])|(W[AVIY]))$
(assert (not (str.in_re X (re.++ (re.union (re.++ (str.to_re "A") (re.union (str.to_re "L") (str.to_re "K") (str.to_re "Z") (str.to_re "R"))) (re.++ (str.to_re "C") (re.union (str.to_re "A") (str.to_re "O") (str.to_re "T"))) (re.++ (str.to_re "D") (re.union (str.to_re "E") (str.to_re "C"))) (str.to_re "FL") (str.to_re "GA") (str.to_re "HI") (re.++ (str.to_re "I") (re.union (str.to_re "D") (str.to_re "L") (str.to_re "N") (str.to_re "A"))) (re.++ (str.to_re "K") (re.union (str.to_re "S") (str.to_re "Y"))) (str.to_re "LA") (re.++ (str.to_re "M") (re.union (str.to_re "E") (str.to_re "D") (str.to_re "A") (str.to_re "I") (str.to_re "N") (str.to_re "S") (str.to_re "O") (str.to_re "T"))) (re.++ (str.to_re "N") (re.union (str.to_re "E") (str.to_re "V") (str.to_re "H") (str.to_re "J") (str.to_re "M") (str.to_re "Y") (str.to_re "C") (str.to_re "D"))) (re.++ (str.to_re "O") (re.union (str.to_re "H") (str.to_re "K") (str.to_re "R"))) (str.to_re "PA") (str.to_re "RI") (re.++ (str.to_re "S") (re.union (str.to_re "C") (str.to_re "D"))) (re.++ (str.to_re "T") (re.union (str.to_re "N") (str.to_re "X"))) (str.to_re "UT") (re.++ (str.to_re "V") (re.union (str.to_re "T") (str.to_re "A"))) (re.++ (str.to_re "W") (re.union (str.to_re "A") (str.to_re "V") (str.to_re "I") (str.to_re "Y")))) (str.to_re "\u{0a}")))))
; ^(((((((00|\+)49[ \-/]?)|0)[1-9][0-9]{1,4})[ \-/]?)|((((00|\+)49\()|\(0)[1-9][0-9]{1,4}\)[ \-/]?))[0-9]{1,7}([ \-/]?[0-9]{1,5})?)$
(assert (not (str.in_re X (re.++ (str.to_re "\u{0a}") (re.union (re.++ (re.opt (re.union (str.to_re " ") (str.to_re "-") (str.to_re "/"))) (re.union (re.++ (re.union (str.to_re "00") (str.to_re "+")) (str.to_re "49") (re.opt (re.union (str.to_re " ") (str.to_re "-") (str.to_re "/")))) (str.to_re "0")) (re.range "1" "9") ((_ re.loop 1 4) (re.range "0" "9"))) (re.++ (re.union (re.++ (re.union (str.to_re "00") (str.to_re "+")) (str.to_re "49(")) (str.to_re "(0")) (re.range "1" "9") ((_ re.loop 1 4) (re.range "0" "9")) (str.to_re ")") (re.opt (re.union (str.to_re " ") (str.to_re "-") (str.to_re "/"))))) ((_ re.loop 1 7) (re.range "0" "9")) (re.opt (re.++ (re.opt (re.union (str.to_re " ") (str.to_re "-") (str.to_re "/"))) ((_ re.loop 1 5) (re.range "0" "9"))))))))
(check-sat)
